# Solution for model Transporte Maritimo
# Objective value = 0
x[1,1,1] 0
x[1,1,2] 0
x[1,1,3] 0
x[1,9,1] 0
x[1,9,2] 0
x[1,9,3] 0
x[1,2,1] 0
x[1,2,2] 0
x[1,2,3] 0
x[1,10,1] 0
x[1,10,2] 0
x[1,10,3] 0
x[1,3,1] 0
x[1,3,2] 0
x[1,3,3] 0
x[1,11,1] 0
x[1,11,2] 0
x[1,11,3] 0
x[1,4,1] 0
x[1,4,2] 0
x[1,4,3] 0
x[1,12,1] 0
x[1,12,2] 0
x[1,12,3] 0
x[1,5,1] 0
x[1,5,2] 0
x[1,5,3] 0
x[1,13,1] 0
x[1,13,2] 0
x[1,13,3] 0
x[1,6,1] 1
x[1,6,2] 0
x[1,6,3] 0
x[1,14,1] 0
x[1,14,2] 0
x[1,14,3] 0
x[1,7,1] 0
x[1,7,2] 0
x[1,7,3] 0
x[1,15,1] 0
x[1,15,2] 0
x[1,15,3] 0
x[1,8,1] 0
x[1,8,2] 0
x[1,8,3] 0
x[1,16,1] 0
x[1,16,2] 0
x[1,16,3] 0
x[1,17,1] 0
x[1,17,2] 1
x[1,17,3] 1
x[1,20,1] 0
x[1,20,2] 1
x[1,20,3] 1
x[1,18,1] 1
x[1,18,2] 0
x[1,18,3] 1
x[1,21,1] 1
x[1,21,2] 0
x[1,21,3] 1
x[1,19,1] 0
x[1,19,2] 0
x[1,19,3] 0
x[1,22,1] 0
x[1,22,2] 0
x[1,22,3] 0
x[9,1,1] 0
x[9,1,2] 0
x[9,1,3] 0
x[9,9,1] 0
x[9,9,2] 0
x[9,9,3] 0
x[9,2,1] 0
x[9,2,2] 0
x[9,2,3] 0
x[9,10,1] 0
x[9,10,2] 0
x[9,10,3] 0
x[9,3,1] 0
x[9,3,2] 0
x[9,3,3] 0
x[9,11,1] 0
x[9,11,2] 0
x[9,11,3] 0
x[9,4,1] 0
x[9,4,2] 0
x[9,4,3] 0
x[9,12,1] 0
x[9,12,2] 0
x[9,12,3] 0
x[9,5,1] 0
x[9,5,2] 0
x[9,5,3] 0
x[9,13,1] 0
x[9,13,2] 0
x[9,13,3] 0
x[9,6,1] 1
x[9,6,2] 0
x[9,6,3] 0
x[9,14,1] 1
x[9,14,2] 0
x[9,14,3] 0
x[9,7,1] 0
x[9,7,2] 0
x[9,7,3] 0
x[9,15,1] 0
x[9,15,2] 0
x[9,15,3] 0
x[9,8,1] 0
x[9,8,2] 0
x[9,8,3] 0
x[9,16,1] 0
x[9,16,2] 0
x[9,16,3] 0
x[9,17,1] 0
x[9,17,2] 1
x[9,17,3] 1
x[9,20,1] 0
x[9,20,2] 1
x[9,20,3] 1
x[9,18,1] 1
x[9,18,2] 0
x[9,18,3] 1
x[9,21,1] 1
x[9,21,2] 0
x[9,21,3] 1
x[9,19,1] 1
x[9,19,2] 1
x[9,19,3] 0
x[9,22,1] 1
x[9,22,2] 1
x[9,22,3] 0
x[2,1,1] 0
x[2,1,2] 0
x[2,1,3] 0
x[2,9,1] 0
x[2,9,2] 0
x[2,9,3] 0
x[2,2,1] 0
x[2,2,2] 0
x[2,2,3] 0
x[2,10,1] 0
x[2,10,2] 0
x[2,10,3] 0
x[2,3,1] 0
x[2,3,2] 0
x[2,3,3] 0
x[2,11,1] 0
x[2,11,2] 0
x[2,11,3] 0
x[2,4,1] 0
x[2,4,2] 0
x[2,4,3] 0
x[2,12,1] 0
x[2,12,2] 0
x[2,12,3] 0
x[2,5,1] 0
x[2,5,2] 0
x[2,5,3] 0
x[2,13,1] 0
x[2,13,2] 0
x[2,13,3] 0
x[2,6,1] 1
x[2,6,2] 0
x[2,6,3] 0
x[2,14,1] 0
x[2,14,2] 0
x[2,14,3] 0
x[2,7,1] 0
x[2,7,2] 0
x[2,7,3] 0
x[2,15,1] 0
x[2,15,2] 0
x[2,15,3] 0
x[2,8,1] 0
x[2,8,2] 0
x[2,8,3] 0
x[2,16,1] 0
x[2,16,2] 0
x[2,16,3] 0
x[2,17,1] 0
x[2,17,2] 1
x[2,17,3] 1
x[2,20,1] 0
x[2,20,2] 1
x[2,20,3] 1
x[2,18,1] 1
x[2,18,2] 0
x[2,18,3] 1
x[2,21,1] 1
x[2,21,2] 0
x[2,21,3] 1
x[2,19,1] 0
x[2,19,2] 0
x[2,19,3] 0
x[2,22,1] 0
x[2,22,2] 0
x[2,22,3] 0
x[10,1,1] 0
x[10,1,2] 0
x[10,1,3] 0
x[10,9,1] 0
x[10,9,2] 0
x[10,9,3] 0
x[10,2,1] 0
x[10,2,2] 0
x[10,2,3] 0
x[10,10,1] 0
x[10,10,2] 0
x[10,10,3] 0
x[10,3,1] 0
x[10,3,2] 0
x[10,3,3] 0
x[10,11,1] 0
x[10,11,2] 0
x[10,11,3] 0
x[10,4,1] 0
x[10,4,2] 0
x[10,4,3] 0
x[10,12,1] 0
x[10,12,2] 0
x[10,12,3] 0
x[10,5,1] 0
x[10,5,2] 0
x[10,5,3] 0
x[10,13,1] 0
x[10,13,2] 0
x[10,13,3] 0
x[10,6,1] 1
x[10,6,2] 0
x[10,6,3] 0
x[10,14,1] 1
x[10,14,2] 0
x[10,14,3] 0
x[10,7,1] 0
x[10,7,2] 0
x[10,7,3] 0
x[10,15,1] 0
x[10,15,2] 0
x[10,15,3] 0
x[10,8,1] 0
x[10,8,2] 0
x[10,8,3] 0
x[10,16,1] 0
x[10,16,2] 0
x[10,16,3] 0
x[10,17,1] 0
x[10,17,2] 1
x[10,17,3] 1
x[10,20,1] 0
x[10,20,2] 1
x[10,20,3] 1
x[10,18,1] 1
x[10,18,2] 0
x[10,18,3] 1
x[10,21,1] 1
x[10,21,2] 0
x[10,21,3] 1
x[10,19,1] 1
x[10,19,2] 1
x[10,19,3] 0
x[10,22,1] 1
x[10,22,2] 1
x[10,22,3] 0
x[3,1,1] 0
x[3,1,2] 0
x[3,1,3] 0
x[3,9,1] 0
x[3,9,2] 0
x[3,9,3] 0
x[3,2,1] 0
x[3,2,2] 0
x[3,2,3] 0
x[3,10,1] 0
x[3,10,2] 0
x[3,10,3] 0
x[3,3,1] 0
x[3,3,2] 0
x[3,3,3] 0
x[3,11,1] 0
x[3,11,2] 0
x[3,11,3] 0
x[3,4,1] 0
x[3,4,2] 0
x[3,4,3] 0
x[3,12,1] 0
x[3,12,2] 0
x[3,12,3] 0
x[3,5,1] 0
x[3,5,2] 0
x[3,5,3] 0
x[3,13,1] 0
x[3,13,2] 0
x[3,13,3] 0
x[3,6,1] 1
x[3,6,2] 0
x[3,6,3] 0
x[3,14,1] 0
x[3,14,2] 0
x[3,14,3] 0
x[3,7,1] 0
x[3,7,2] 0
x[3,7,3] 0
x[3,15,1] 0
x[3,15,2] 0
x[3,15,3] 0
x[3,8,1] 0
x[3,8,2] 0
x[3,8,3] 0
x[3,16,1] 0
x[3,16,2] 0
x[3,16,3] 0
x[3,17,1] 0
x[3,17,2] 1
x[3,17,3] 1
x[3,20,1] 0
x[3,20,2] 1
x[3,20,3] 1
x[3,18,1] 1
x[3,18,2] 0
x[3,18,3] 1
x[3,21,1] 1
x[3,21,2] 0
x[3,21,3] 1
x[3,19,1] 0
x[3,19,2] 0
x[3,19,3] 0
x[3,22,1] 0
x[3,22,2] 0
x[3,22,3] 0
x[11,1,1] 0
x[11,1,2] 0
x[11,1,3] 0
x[11,9,1] 0
x[11,9,2] 0
x[11,9,3] 0
x[11,2,1] 0
x[11,2,2] 0
x[11,2,3] 0
x[11,10,1] 0
x[11,10,2] 0
x[11,10,3] 0
x[11,3,1] 0
x[11,3,2] 0
x[11,3,3] 0
x[11,11,1] 0
x[11,11,2] 0
x[11,11,3] 0
x[11,4,1] 0
x[11,4,2] 0
x[11,4,3] 0
x[11,12,1] 0
x[11,12,2] 0
x[11,12,3] 0
x[11,5,1] 0
x[11,5,2] 0
x[11,5,3] 0
x[11,13,1] 0
x[11,13,2] 0
x[11,13,3] 0
x[11,6,1] 1
x[11,6,2] 0
x[11,6,3] 0
x[11,14,1] 1
x[11,14,2] 0
x[11,14,3] 0
x[11,7,1] 0
x[11,7,2] 0
x[11,7,3] 0
x[11,15,1] 0
x[11,15,2] 0
x[11,15,3] 0
x[11,8,1] 0
x[11,8,2] 0
x[11,8,3] 0
x[11,16,1] 0
x[11,16,2] 0
x[11,16,3] 0
x[11,17,1] 0
x[11,17,2] 1
x[11,17,3] 1
x[11,20,1] 0
x[11,20,2] 1
x[11,20,3] 1
x[11,18,1] 1
x[11,18,2] 0
x[11,18,3] 1
x[11,21,1] 1
x[11,21,2] 0
x[11,21,3] 1
x[11,19,1] 1
x[11,19,2] 1
x[11,19,3] 0
x[11,22,1] 1
x[11,22,2] 1
x[11,22,3] 0
x[4,1,1] 0
x[4,1,2] 0
x[4,1,3] 0
x[4,9,1] 0
x[4,9,2] 0
x[4,9,3] 0
x[4,2,1] 0
x[4,2,2] 0
x[4,2,3] 0
x[4,10,1] 0
x[4,10,2] 0
x[4,10,3] 0
x[4,3,1] 0
x[4,3,2] 0
x[4,3,3] 0
x[4,11,1] 0
x[4,11,2] 0
x[4,11,3] 0
x[4,4,1] 0
x[4,4,2] 0
x[4,4,3] 0
x[4,12,1] 0
x[4,12,2] 0
x[4,12,3] 0
x[4,5,1] 0
x[4,5,2] 0
x[4,5,3] 0
x[4,13,1] 0
x[4,13,2] 0
x[4,13,3] 0
x[4,6,1] 1
x[4,6,2] 0
x[4,6,3] 0
x[4,14,1] 0
x[4,14,2] 0
x[4,14,3] 0
x[4,7,1] 0
x[4,7,2] 0
x[4,7,3] 0
x[4,15,1] 0
x[4,15,2] 0
x[4,15,3] 0
x[4,8,1] 0
x[4,8,2] 0
x[4,8,3] 0
x[4,16,1] 0
x[4,16,2] 0
x[4,16,3] 0
x[4,17,1] 0
x[4,17,2] 1
x[4,17,3] 1
x[4,20,1] 0
x[4,20,2] 1
x[4,20,3] 1
x[4,18,1] 1
x[4,18,2] 0
x[4,18,3] 1
x[4,21,1] 1
x[4,21,2] 0
x[4,21,3] 1
x[4,19,1] 0
x[4,19,2] 0
x[4,19,3] 0
x[4,22,1] 0
x[4,22,2] 0
x[4,22,3] 0
x[12,1,1] 0
x[12,1,2] 0
x[12,1,3] 0
x[12,9,1] 0
x[12,9,2] 0
x[12,9,3] 0
x[12,2,1] 0
x[12,2,2] 0
x[12,2,3] 0
x[12,10,1] 0
x[12,10,2] 0
x[12,10,3] 0
x[12,3,1] 0
x[12,3,2] 0
x[12,3,3] 0
x[12,11,1] 0
x[12,11,2] 0
x[12,11,3] 0
x[12,4,1] 0
x[12,4,2] 0
x[12,4,3] 0
x[12,12,1] 0
x[12,12,2] 0
x[12,12,3] 0
x[12,5,1] 0
x[12,5,2] 0
x[12,5,3] 0
x[12,13,1] 0
x[12,13,2] 0
x[12,13,3] 0
x[12,6,1] 1
x[12,6,2] 0
x[12,6,3] 0
x[12,14,1] 1
x[12,14,2] 0
x[12,14,3] 0
x[12,7,1] 0
x[12,7,2] 0
x[12,7,3] 0
x[12,15,1] 0
x[12,15,2] 0
x[12,15,3] 0
x[12,8,1] 0
x[12,8,2] 0
x[12,8,3] 0
x[12,16,1] 0
x[12,16,2] 0
x[12,16,3] 0
x[12,17,1] 0
x[12,17,2] 1
x[12,17,3] 1
x[12,20,1] 0
x[12,20,2] 1
x[12,20,3] 1
x[12,18,1] 1
x[12,18,2] 0
x[12,18,3] 1
x[12,21,1] 1
x[12,21,2] 0
x[12,21,3] 1
x[12,19,1] 1
x[12,19,2] 1
x[12,19,3] 0
x[12,22,1] 1
x[12,22,2] 1
x[12,22,3] 0
x[5,1,1] 0
x[5,1,2] 0
x[5,1,3] 0
x[5,9,1] 0
x[5,9,2] 0
x[5,9,3] 0
x[5,2,1] 0
x[5,2,2] 0
x[5,2,3] 0
x[5,10,1] 0
x[5,10,2] 0
x[5,10,3] 0
x[5,3,1] 0
x[5,3,2] 0
x[5,3,3] 0
x[5,11,1] 0
x[5,11,2] 0
x[5,11,3] 0
x[5,4,1] 0
x[5,4,2] 0
x[5,4,3] 0
x[5,12,1] 0
x[5,12,2] 0
x[5,12,3] 0
x[5,5,1] 0
x[5,5,2] 0
x[5,5,3] 0
x[5,13,1] 0
x[5,13,2] 0
x[5,13,3] 0
x[5,6,1] 1
x[5,6,2] 0
x[5,6,3] 0
x[5,14,1] 0
x[5,14,2] 0
x[5,14,3] 0
x[5,7,1] 0
x[5,7,2] 0
x[5,7,3] 0
x[5,15,1] 0
x[5,15,2] 0
x[5,15,3] 0
x[5,8,1] 0
x[5,8,2] 0
x[5,8,3] 0
x[5,16,1] 0
x[5,16,2] 0
x[5,16,3] 0
x[5,17,1] 0
x[5,17,2] 1
x[5,17,3] 1
x[5,20,1] 0
x[5,20,2] 1
x[5,20,3] 1
x[5,18,1] 1
x[5,18,2] 0
x[5,18,3] 1
x[5,21,1] 1
x[5,21,2] 0
x[5,21,3] 1
x[5,19,1] 0
x[5,19,2] 0
x[5,19,3] 0
x[5,22,1] 0
x[5,22,2] 0
x[5,22,3] 0
x[13,1,1] 0
x[13,1,2] 0
x[13,1,3] 0
x[13,9,1] 0
x[13,9,2] 0
x[13,9,3] 0
x[13,2,1] 0
x[13,2,2] 0
x[13,2,3] 0
x[13,10,1] 0
x[13,10,2] 0
x[13,10,3] 0
x[13,3,1] 0
x[13,3,2] 0
x[13,3,3] 0
x[13,11,1] 0
x[13,11,2] 0
x[13,11,3] 0
x[13,4,1] 0
x[13,4,2] 0
x[13,4,3] 0
x[13,12,1] 0
x[13,12,2] 0
x[13,12,3] 0
x[13,5,1] 0
x[13,5,2] 0
x[13,5,3] 0
x[13,13,1] 0
x[13,13,2] 0
x[13,13,3] 0
x[13,6,1] 1
x[13,6,2] 0
x[13,6,3] 0
x[13,14,1] 1
x[13,14,2] 0
x[13,14,3] 0
x[13,7,1] 0
x[13,7,2] 0
x[13,7,3] 0
x[13,15,1] 0
x[13,15,2] 0
x[13,15,3] 0
x[13,8,1] 0
x[13,8,2] 0
x[13,8,3] 0
x[13,16,1] 0
x[13,16,2] 0
x[13,16,3] 0
x[13,17,1] 0
x[13,17,2] 1
x[13,17,3] 1
x[13,20,1] 0
x[13,20,2] 1
x[13,20,3] 1
x[13,18,1] 1
x[13,18,2] 0
x[13,18,3] 1
x[13,21,1] 1
x[13,21,2] 0
x[13,21,3] 1
x[13,19,1] 1
x[13,19,2] 1
x[13,19,3] 0
x[13,22,1] 1
x[13,22,2] 1
x[13,22,3] 0
x[6,1,1] 1
x[6,1,2] 0
x[6,1,3] 0
x[6,9,1] 0
x[6,9,2] 0
x[6,9,3] 0
x[6,2,1] 0
x[6,2,2] 0
x[6,2,3] 0
x[6,10,1] 0
x[6,10,2] 0
x[6,10,3] 0
x[6,3,1] 0
x[6,3,2] 0
x[6,3,3] 0
x[6,11,1] 0
x[6,11,2] 0
x[6,11,3] 0
x[6,4,1] 0
x[6,4,2] 0
x[6,4,3] 0
x[6,12,1] 0
x[6,12,2] 0
x[6,12,3] 0
x[6,5,1] 0
x[6,5,2] 0
x[6,5,3] 0
x[6,13,1] 0
x[6,13,2] 0
x[6,13,3] 0
x[6,6,1] 0
x[6,6,2] 0
x[6,6,3] 0
x[6,14,1] 0
x[6,14,2] 0
x[6,14,3] 0
x[6,7,1] 0
x[6,7,2] 0
x[6,7,3] 0
x[6,15,1] 0
x[6,15,2] 0
x[6,15,3] 0
x[6,8,1] 0
x[6,8,2] 0
x[6,8,3] 0
x[6,16,1] 0
x[6,16,2] 0
x[6,16,3] 0
x[6,17,1] 1
x[6,17,2] 1
x[6,17,3] 1
x[6,20,1] 1
x[6,20,2] 1
x[6,20,3] 1
x[6,18,1] 1
x[6,18,2] 0
x[6,18,3] 1
x[6,21,1] 1
x[6,21,2] 0
x[6,21,3] 1
x[6,19,1] 0
x[6,19,2] 0
x[6,19,3] 0
x[6,22,1] 0
x[6,22,2] 0
x[6,22,3] 0
x[14,1,1] 1
x[14,1,2] 0
x[14,1,3] 0
x[14,9,1] 1
x[14,9,2] 0
x[14,9,3] 0
x[14,2,1] 1
x[14,2,2] 0
x[14,2,3] 0
x[14,10,1] 1
x[14,10,2] 0
x[14,10,3] 0
x[14,3,1] 1
x[14,3,2] 0
x[14,3,3] 0
x[14,11,1] 1
x[14,11,2] 0
x[14,11,3] 0
x[14,4,1] 1
x[14,4,2] 0
x[14,4,3] 0
x[14,12,1] 1
x[14,12,2] 0
x[14,12,3] 0
x[14,5,1] 1
x[14,5,2] 0
x[14,5,3] 0
x[14,13,1] 1
x[14,13,2] 0
x[14,13,3] 0
x[14,6,1] 1
x[14,6,2] 0
x[14,6,3] 0
x[14,14,1] 1
x[14,14,2] 0
x[14,14,3] 0
x[14,7,1] 1
x[14,7,2] 0
x[14,7,3] 0
x[14,15,1] 1
x[14,15,2] 0
x[14,15,3] 0
x[14,8,1] 1
x[14,8,2] 0
x[14,8,3] 0
x[14,16,1] 1
x[14,16,2] 0
x[14,16,3] 0
x[14,17,1] 1
x[14,17,2] 1
x[14,17,3] 1
x[14,20,1] 1
x[14,20,2] 1
x[14,20,3] 1
x[14,18,1] 1
x[14,18,2] 0
x[14,18,3] 1
x[14,21,1] 1
x[14,21,2] 0
x[14,21,3] 1
x[14,19,1] 1
x[14,19,2] 1
x[14,19,3] 0
x[14,22,1] 1
x[14,22,2] 1
x[14,22,3] 0
x[7,1,1] 0
x[7,1,2] 0
x[7,1,3] 0
x[7,9,1] 0
x[7,9,2] 0
x[7,9,3] 0
x[7,2,1] 0
x[7,2,2] 0
x[7,2,3] 0
x[7,10,1] 0
x[7,10,2] 0
x[7,10,3] 0
x[7,3,1] 0
x[7,3,2] 0
x[7,3,3] 0
x[7,11,1] 0
x[7,11,2] 0
x[7,11,3] 0
x[7,4,1] 0
x[7,4,2] 0
x[7,4,3] 0
x[7,12,1] 0
x[7,12,2] 0
x[7,12,3] 0
x[7,5,1] 0
x[7,5,2] 0
x[7,5,3] 0
x[7,13,1] 0
x[7,13,2] 0
x[7,13,3] 0
x[7,6,1] 1
x[7,6,2] 0
x[7,6,3] 0
x[7,14,1] 0
x[7,14,2] 0
x[7,14,3] 0
x[7,7,1] 0
x[7,7,2] 0
x[7,7,3] 0
x[7,15,1] 0
x[7,15,2] 0
x[7,15,3] 0
x[7,8,1] 0
x[7,8,2] 0
x[7,8,3] 0
x[7,16,1] 0
x[7,16,2] 0
x[7,16,3] 0
x[7,17,1] 0
x[7,17,2] 1
x[7,17,3] 1
x[7,20,1] 0
x[7,20,2] 1
x[7,20,3] 1
x[7,18,1] 1
x[7,18,2] 0
x[7,18,3] 1
x[7,21,1] 1
x[7,21,2] 0
x[7,21,3] 1
x[7,19,1] 0
x[7,19,2] 0
x[7,19,3] 0
x[7,22,1] 0
x[7,22,2] 0
x[7,22,3] 0
x[15,1,1] 0
x[15,1,2] 0
x[15,1,3] 0
x[15,9,1] 0
x[15,9,2] 0
x[15,9,3] 0
x[15,2,1] 0
x[15,2,2] 0
x[15,2,3] 0
x[15,10,1] 0
x[15,10,2] 0
x[15,10,3] 0
x[15,3,1] 0
x[15,3,2] 0
x[15,3,3] 0
x[15,11,1] 0
x[15,11,2] 0
x[15,11,3] 0
x[15,4,1] 0
x[15,4,2] 0
x[15,4,3] 0
x[15,12,1] 0
x[15,12,2] 0
x[15,12,3] 0
x[15,5,1] 0
x[15,5,2] 0
x[15,5,3] 0
x[15,13,1] 0
x[15,13,2] 0
x[15,13,3] 0
x[15,6,1] 1
x[15,6,2] 0
x[15,6,3] 0
x[15,14,1] 1
x[15,14,2] 0
x[15,14,3] 0
x[15,7,1] 0
x[15,7,2] 0
x[15,7,3] 0
x[15,15,1] 0
x[15,15,2] 0
x[15,15,3] 0
x[15,8,1] 0
x[15,8,2] 0
x[15,8,3] 0
x[15,16,1] 0
x[15,16,2] 0
x[15,16,3] 0
x[15,17,1] 0
x[15,17,2] 1
x[15,17,3] 1
x[15,20,1] 0
x[15,20,2] 1
x[15,20,3] 1
x[15,18,1] 1
x[15,18,2] 0
x[15,18,3] 1
x[15,21,1] 1
x[15,21,2] 0
x[15,21,3] 1
x[15,19,1] 1
x[15,19,2] 1
x[15,19,3] 0
x[15,22,1] 1
x[15,22,2] 1
x[15,22,3] 0
x[8,1,1] 0
x[8,1,2] 0
x[8,1,3] 0
x[8,9,1] 0
x[8,9,2] 0
x[8,9,3] 0
x[8,2,1] 0
x[8,2,2] 0
x[8,2,3] 0
x[8,10,1] 0
x[8,10,2] 0
x[8,10,3] 0
x[8,3,1] 0
x[8,3,2] 0
x[8,3,3] 0
x[8,11,1] 0
x[8,11,2] 0
x[8,11,3] 0
x[8,4,1] 0
x[8,4,2] 0
x[8,4,3] 0
x[8,12,1] 0
x[8,12,2] 0
x[8,12,3] 0
x[8,5,1] 0
x[8,5,2] 0
x[8,5,3] 0
x[8,13,1] 0
x[8,13,2] 0
x[8,13,3] 0
x[8,6,1] 1
x[8,6,2] 0
x[8,6,3] 0
x[8,14,1] 0
x[8,14,2] 0
x[8,14,3] 0
x[8,7,1] 0
x[8,7,2] 0
x[8,7,3] 0
x[8,15,1] 0
x[8,15,2] 0
x[8,15,3] 0
x[8,8,1] 0
x[8,8,2] 0
x[8,8,3] 0
x[8,16,1] 0
x[8,16,2] 0
x[8,16,3] 0
x[8,17,1] 0
x[8,17,2] 1
x[8,17,3] 1
x[8,20,1] 0
x[8,20,2] 1
x[8,20,3] 1
x[8,18,1] 1
x[8,18,2] 0
x[8,18,3] 1
x[8,21,1] 1
x[8,21,2] 0
x[8,21,3] 1
x[8,19,1] 0
x[8,19,2] 0
x[8,19,3] 0
x[8,22,1] 0
x[8,22,2] 0
x[8,22,3] 0
x[16,1,1] 0
x[16,1,2] 0
x[16,1,3] 0
x[16,9,1] 0
x[16,9,2] 0
x[16,9,3] 0
x[16,2,1] 0
x[16,2,2] 0
x[16,2,3] 0
x[16,10,1] 0
x[16,10,2] 0
x[16,10,3] 0
x[16,3,1] 0
x[16,3,2] 0
x[16,3,3] 0
x[16,11,1] 0
x[16,11,2] 0
x[16,11,3] 0
x[16,4,1] 0
x[16,4,2] 0
x[16,4,3] 0
x[16,12,1] 0
x[16,12,2] 0
x[16,12,3] 0
x[16,5,1] 0
x[16,5,2] 0
x[16,5,3] 0
x[16,13,1] 0
x[16,13,2] 0
x[16,13,3] 0
x[16,6,1] 1
x[16,6,2] 0
x[16,6,3] 0
x[16,14,1] 1
x[16,14,2] 0
x[16,14,3] 0
x[16,7,1] 0
x[16,7,2] 0
x[16,7,3] 0
x[16,15,1] 0
x[16,15,2] 0
x[16,15,3] 0
x[16,8,1] 0
x[16,8,2] 0
x[16,8,3] 0
x[16,16,1] 0
x[16,16,2] 0
x[16,16,3] 0
x[16,17,1] 0
x[16,17,2] 1
x[16,17,3] 1
x[16,20,1] 0
x[16,20,2] 1
x[16,20,3] 1
x[16,18,1] 1
x[16,18,2] 0
x[16,18,3] 1
x[16,21,1] 1
x[16,21,2] 0
x[16,21,3] 1
x[16,19,1] 1
x[16,19,2] 1
x[16,19,3] 0
x[16,22,1] 1
x[16,22,2] 1
x[16,22,3] 0
x[17,1,1] 0
x[17,1,2] 1
x[17,1,3] 1
x[17,9,1] 0
x[17,9,2] 1
x[17,9,3] 1
x[17,2,1] 0
x[17,2,2] 1
x[17,2,3] 1
x[17,10,1] 0
x[17,10,2] 1
x[17,10,3] 1
x[17,3,1] 0
x[17,3,2] 1
x[17,3,3] 1
x[17,11,1] 0
x[17,11,2] 1
x[17,11,3] 1
x[17,4,1] 0
x[17,4,2] 1
x[17,4,3] 1
x[17,12,1] 0
x[17,12,2] 1
x[17,12,3] 1
x[17,5,1] 0
x[17,5,2] 1
x[17,5,3] 1
x[17,13,1] 0
x[17,13,2] 1
x[17,13,3] 1
x[17,6,1] 1
x[17,6,2] 1
x[17,6,3] 1
x[17,14,1] 1
x[17,14,2] 1
x[17,14,3] 1
x[17,7,1] 0
x[17,7,2] 1
x[17,7,3] 1
x[17,15,1] 0
x[17,15,2] 1
x[17,15,3] 1
x[17,8,1] 0
x[17,8,2] 1
x[17,8,3] 1
x[17,16,1] 0
x[17,16,2] 1
x[17,16,3] 1
x[17,17,1] 1
x[17,17,2] 1
x[17,17,3] 1
x[17,20,1] 0
x[17,20,2] 1
x[17,20,3] 1
x[17,18,1] 1
x[17,18,2] 1
x[17,18,3] 1
x[17,21,1] 1
x[17,21,2] 1
x[17,21,3] 1
x[17,19,1] 1
x[17,19,2] 1
x[17,19,3] 1
x[17,22,1] 1
x[17,22,2] 1
x[17,22,3] 1
x[20,1,1] 0
x[20,1,2] 1
x[20,1,3] 1
x[20,9,1] 0
x[20,9,2] 1
x[20,9,3] 1
x[20,2,1] 0
x[20,2,2] 1
x[20,2,3] 1
x[20,10,1] 0
x[20,10,2] 1
x[20,10,3] 1
x[20,3,1] 0
x[20,3,2] 1
x[20,3,3] 1
x[20,11,1] 0
x[20,11,2] 1
x[20,11,3] 1
x[20,4,1] 0
x[20,4,2] 1
x[20,4,3] 1
x[20,12,1] 0
x[20,12,2] 1
x[20,12,3] 1
x[20,5,1] 0
x[20,5,2] 1
x[20,5,3] 1
x[20,13,1] 0
x[20,13,2] 1
x[20,13,3] 1
x[20,6,1] 1
x[20,6,2] 1
x[20,6,3] 1
x[20,14,1] 1
x[20,14,2] 1
x[20,14,3] 1
x[20,7,1] 0
x[20,7,2] 1
x[20,7,3] 1
x[20,15,1] 0
x[20,15,2] 1
x[20,15,3] 1
x[20,8,1] 0
x[20,8,2] 1
x[20,8,3] 1
x[20,16,1] 0
x[20,16,2] 1
x[20,16,3] 1
x[20,17,1] 0
x[20,17,2] 1
x[20,17,3] 1
x[20,20,1] 1
x[20,20,2] 1
x[20,20,3] 1
x[20,18,1] 1
x[20,18,2] 1
x[20,18,3] 1
x[20,21,1] 1
x[20,21,2] 1
x[20,21,3] 1
x[20,19,1] 1
x[20,19,2] 1
x[20,19,3] 1
x[20,22,1] 1
x[20,22,2] 1
x[20,22,3] 1
x[18,1,1] 1
x[18,1,2] 0
x[18,1,3] 1
x[18,9,1] 1
x[18,9,2] 0
x[18,9,3] 1
x[18,2,1] 1
x[18,2,2] 0
x[18,2,3] 1
x[18,10,1] 1
x[18,10,2] 0
x[18,10,3] 1
x[18,3,1] 1
x[18,3,2] 0
x[18,3,3] 1
x[18,11,1] 1
x[18,11,2] 0
x[18,11,3] 1
x[18,4,1] 1
x[18,4,2] 0
x[18,4,3] 1
x[18,12,1] 1
x[18,12,2] 0
x[18,12,3] 1
x[18,5,1] 1
x[18,5,2] 0
x[18,5,3] 1
x[18,13,1] 1
x[18,13,2] 0
x[18,13,3] 1
x[18,6,1] 1
x[18,6,2] 0
x[18,6,3] 1
x[18,14,1] 1
x[18,14,2] 0
x[18,14,3] 1
x[18,7,1] 1
x[18,7,2] 0
x[18,7,3] 1
x[18,15,1] 1
x[18,15,2] 0
x[18,15,3] 1
x[18,8,1] 1
x[18,8,2] 0
x[18,8,3] 1
x[18,16,1] 1
x[18,16,2] 0
x[18,16,3] 1
x[18,17,1] 1
x[18,17,2] 1
x[18,17,3] 1
x[18,20,1] 1
x[18,20,2] 1
x[18,20,3] 1
x[18,18,1] 1
x[18,18,2] 1
x[18,18,3] 1
x[18,21,1] 1
x[18,21,2] 0
x[18,21,3] 1
x[18,19,1] 1
x[18,19,2] 1
x[18,19,3] 1
x[18,22,1] 1
x[18,22,2] 1
x[18,22,3] 1
x[21,1,1] 1
x[21,1,2] 0
x[21,1,3] 1
x[21,9,1] 1
x[21,9,2] 0
x[21,9,3] 1
x[21,2,1] 1
x[21,2,2] 0
x[21,2,3] 1
x[21,10,1] 1
x[21,10,2] 0
x[21,10,3] 1
x[21,3,1] 1
x[21,3,2] 0
x[21,3,3] 1
x[21,11,1] 1
x[21,11,2] 0
x[21,11,3] 1
x[21,4,1] 1
x[21,4,2] 0
x[21,4,3] 1
x[21,12,1] 1
x[21,12,2] 0
x[21,12,3] 1
x[21,5,1] 1
x[21,5,2] 0
x[21,5,3] 1
x[21,13,1] 1
x[21,13,2] 0
x[21,13,3] 1
x[21,6,1] 1
x[21,6,2] 0
x[21,6,3] 1
x[21,14,1] 1
x[21,14,2] 0
x[21,14,3] 1
x[21,7,1] 1
x[21,7,2] 0
x[21,7,3] 1
x[21,15,1] 1
x[21,15,2] 0
x[21,15,3] 1
x[21,8,1] 1
x[21,8,2] 0
x[21,8,3] 1
x[21,16,1] 1
x[21,16,2] 0
x[21,16,3] 1
x[21,17,1] 1
x[21,17,2] 1
x[21,17,3] 1
x[21,20,1] 1
x[21,20,2] 1
x[21,20,3] 1
x[21,18,1] 1
x[21,18,2] 0
x[21,18,3] 1
x[21,21,1] 1
x[21,21,2] 1
x[21,21,3] 1
x[21,19,1] 1
x[21,19,2] 1
x[21,19,3] 1
x[21,22,1] 1
x[21,22,2] 1
x[21,22,3] 1
x[19,1,1] 1
x[19,1,2] 1
x[19,1,3] 0
x[19,9,1] 1
x[19,9,2] 1
x[19,9,3] 0
x[19,2,1] 1
x[19,2,2] 1
x[19,2,3] 0
x[19,10,1] 1
x[19,10,2] 1
x[19,10,3] 0
x[19,3,1] 1
x[19,3,2] 1
x[19,3,3] 0
x[19,11,1] 1
x[19,11,2] 1
x[19,11,3] 0
x[19,4,1] 1
x[19,4,2] 1
x[19,4,3] 0
x[19,12,1] 1
x[19,12,2] 1
x[19,12,3] 0
x[19,5,1] 1
x[19,5,2] 1
x[19,5,3] 0
x[19,13,1] 1
x[19,13,2] 1
x[19,13,3] 0
x[19,6,1] 1
x[19,6,2] 1
x[19,6,3] 0
x[19,14,1] 1
x[19,14,2] 1
x[19,14,3] 0
x[19,7,1] 1
x[19,7,2] 1
x[19,7,3] 0
x[19,15,1] 1
x[19,15,2] 1
x[19,15,3] 0
x[19,8,1] 1
x[19,8,2] 1
x[19,8,3] 0
x[19,16,1] 1
x[19,16,2] 1
x[19,16,3] 0
x[19,17,1] 1
x[19,17,2] 1
x[19,17,3] 1
x[19,20,1] 1
x[19,20,2] 1
x[19,20,3] 1
x[19,18,1] 1
x[19,18,2] 1
x[19,18,3] 1
x[19,21,1] 1
x[19,21,2] 1
x[19,21,3] 1
x[19,19,1] 1
x[19,19,2] 1
x[19,19,3] 1
x[19,22,1] 1
x[19,22,2] 1
x[19,22,3] 0
x[22,1,1] 1
x[22,1,2] 1
x[22,1,3] 0
x[22,9,1] 1
x[22,9,2] 1
x[22,9,3] 0
x[22,2,1] 1
x[22,2,2] 1
x[22,2,3] 0
x[22,10,1] 1
x[22,10,2] 1
x[22,10,3] 0
x[22,3,1] 1
x[22,3,2] 1
x[22,3,3] 0
x[22,11,1] 1
x[22,11,2] 1
x[22,11,3] 0
x[22,4,1] 1
x[22,4,2] 1
x[22,4,3] 0
x[22,12,1] 1
x[22,12,2] 1
x[22,12,3] 0
x[22,5,1] 1
x[22,5,2] 1
x[22,5,3] 0
x[22,13,1] 1
x[22,13,2] 1
x[22,13,3] 0
x[22,6,1] 1
x[22,6,2] 1
x[22,6,3] 0
x[22,14,1] 1
x[22,14,2] 1
x[22,14,3] 0
x[22,7,1] 1
x[22,7,2] 1
x[22,7,3] 0
x[22,15,1] 1
x[22,15,2] 1
x[22,15,3] 0
x[22,8,1] 1
x[22,8,2] 1
x[22,8,3] 0
x[22,16,1] 1
x[22,16,2] 1
x[22,16,3] 0
x[22,17,1] 1
x[22,17,2] 1
x[22,17,3] 1
x[22,20,1] 1
x[22,20,2] 1
x[22,20,3] 1
x[22,18,1] 1
x[22,18,2] 1
x[22,18,3] 1
x[22,21,1] 1
x[22,21,2] 1
x[22,21,3] 1
x[22,19,1] 1
x[22,19,2] 1
x[22,19,3] 0
x[22,22,1] 1
x[22,22,2] 1
x[22,22,3] 1
y[1] 0
y[2] 0
y[3] 0
y[4] 0
y[5] 0
y[6] 0
y[7] 0
y[8] 0
t[1,1] 328
t[2,1] 513
t[3,1] 142
t[4,1] 118
t[5,1] 726
t[7,1] 21
t[8,1] 63
t[9,1] 411
t[10,1] 608
t[11,1] 267
t[12,1] 241
t[13,1] 799
t[15,1] 76
t[16,1] 122
t[17,1] 0
t[20,1] 1253
t[1,2] 328
t[2,2] 513
t[3,2] 142
t[4,2] 118
t[5,2] 726
t[6,2] 0
t[7,2] 21
t[8,2] 63
t[9,2] 411
t[10,2] 608
t[11,2] 267
t[12,2] 241
t[13,2] 799
t[14,2] 36
t[15,2] 76
t[16,2] 122
t[18,2] 0
t[21,2] 1253
t[1,3] 328
t[2,3] 513
t[3,3] 142
t[4,3] 118
t[5,3] 726
t[6,3] 0
t[7,3] 21
t[8,3] 63
t[9,3] 414
t[10,3] 609
t[11,3] 267
t[12,3] 241
t[13,3] 804
t[14,3] 42
t[15,3] 80
t[16,3] 127
t[19,3] 0
t[22,3] 1253
l[1,1] 0
l[2,1] 0
l[3,1] 0
l[4,1] 0
l[5,1] 0
l[7,1] 0
l[8,1] 0
l[9,1] 0
l[10,1] 0
l[11,1] 0
l[12,1] 0
l[13,1] 0
l[15,1] 0
l[16,1] 0
l[17,1] 0
l[20,1] 0
l[1,2] 0
l[2,2] 0
l[3,2] 0
l[4,2] 0
l[5,2] 0
l[6,2] 0
l[7,2] 0
l[8,2] 0
l[9,2] 0
l[10,2] 0
l[11,2] 0
l[12,2] 0
l[13,2] 0
l[14,2] 0
l[15,2] 0
l[16,2] 0
l[18,2] 0
l[21,2] 0
l[1,3] 0
l[2,3] 0
l[3,3] 0
l[4,3] 0
l[5,3] 0
l[6,3] 0
l[7,3] 0
l[8,3] 0
l[9,3] 0
l[10,3] 0
l[11,3] 0
l[12,3] 0
l[13,3] 0
l[14,3] 0
l[15,3] 0
l[16,3] 0
l[19,3] 0
l[22,3] 0
